
  32    4
  10   10   10   10

   0   0   0   0   0   1 2 
   2  10  10  10  10   1 3 
   5  10  10  10  10   2 5 4 
   6  10  10  10  10   2 31 6 
   6  10  10  10  10   2 31 7 
  10  10  10  10  10   1 7 
   6  10  10  10  10   1 8 
   3  10  10  10  10   1 9 
   9  10  10  10  10   1 10 
   9  10  10  10  10   3 15 12 11 
  10  10  10  10  10   2 30 13 
   3  10  10  10  10   2 30 14 
   5  10  10  10  10   1 14 
   9  10  10  10  10   1 16 
   5  10  10  10  10   1 16 
   4  10  10  10  10   1 17 
   5  10  10  10  10   1 18 
  10  10  10  10  10   1 19 
   5  10  10  10  10   1 20 
   1  10  10  10  10   1 21 
   9  10  10  10  10   2 29 22 
   5  10  10  10  10   1 23 
   8  10  10  10  10   1 24 
   8  10  10  10  10   1 25 
   8  10  10  10  10   1 26 
   8  10  10  10  10   1 27 
   1  10  10  10  10   1 28 
   7  10  10  10  10   1 32
   6  10  10  10  10   1 32
   3  10  10  10  10   1 32
   2  10  10  10  10   1 32
   0   0   0   0   0   0 
